57 57 57 57 57 57 74 74 74 74 57 57 74 74 74 57 57 74 74 74 74 74 57 74 74 74 57 57 57 74 74 74 57 57 57 57 74 57 57 57 74 74 74 74 57 57 57 74 57 57 74 57 57 57 74 57 74 57 74 57 74 74 74 57 74 57 74 74 57 74 57 57 74 74 57 57 57 74 57 74 57 74 74 74 57 74 57 57 57 57 57 57 74 57 57 74 74 57 74 57 